benchmarks_CP/INST_36x36/55/inst36x36_55_7.dzn
S=6;
start=[|
8,	29,	33,	-1,	25,	18,	35,	30,	27,	7,	3,	5,	28,	1,	12,	-1,	10,	23,	6,	36,	-1,	34,	-1,	-1,	-1,	-1,	19,	-1,	-1,	-1,	-1,	32,	-1,	-1,	-1,	24|
-1,	-1,	-1,	-1,	34,	-1,	16,	-1,	-1,	-1,	2,	6,	-1,	15,	-1,	-1,	31,	-1,	9,	1,	25,	26,	17,	20,	-1,	-1,	35,	-1,	30,	33,	-1,	14,	3,	-1,	4,	7|
35,	-1,	21,	7,	36,	2,	-1,	26,	-1,	23,	-1,	-1,	-1,	-1,	16,	-1,	-1,	-1,	8,	19,	-1,	27,	-1,	-1,	-1,	-1,	1,	-1,	-1,	-1,	10,	-1,	20,	-1,	-1,	-1|
3,	4,	14,	-1,	17,	19,	-1,	11,	20,	-1,	9,	34,	35,	21,	22,	8,	-1,	32,	-1,	-1,	-1,	16,	24,	-1,	36,	-1,	27,	-1,	-1,	13,	1,	-1,	2,	15,	-1,	6|
-1,	31,	16,	5,	6,	1,	-1,	-1,	33,	17,	-1,	-1,	14,	2,	-1,	-1,	-1,	-1,	21,	32,	-1,	-1,	15,	10,	-1,	18,	4,	-1,	-1,	9,	-1,	35,	12,	23,	25,	-1|
-1,	20,	-1,	-1,	28,	26,	-1,	1,	25,	24,	-1,	-1,	7,	-1,	34,	33,	-1,	-1,	-1,	-1,	18,	13,	14,	12,	16,	5,	-1,	6,	23,	10,	19,	9,	30,	-1,	-1,	8|
-1,	21,	-1,	8,	-1,	33,	19,	15,	-1,	31,	-1,	18,	-1,	4,	-1,	7,	-1,	-1,	-1,	-1,	9,	1,	25,	-1,	-1,	16,	29,	-1,	-1,	36,	5,	-1,	-1,	30,	-1,	28|
23,	-1,	10,	3,	35,	12,	27,	20,	-1,	-1,	21,	25,	-1,	14,	-1,	34,	-1,	13,	4,	11,	-1,	5,	28,	-1,	-1,	-1,	17,	33,	31,	-1,	2,	15,	-1,	22,	16,	19|
15,	1,	24,	18,	9,	-1,	-1,	-1,	-1,	-1,	36,	33,	23,	3,	32,	16,	-1,	10,	27,	8,	-1,	-1,	-1,	22,	-1,	-1,	5,	34,	-1,	-1,	31,	-1,	-1,	13,	14,	-1|
-1,	17,	-1,	4,	32,	22,	9,	23,	24,	-1,	-1,	10,	-1,	-1,	28,	-1,	8,	-1,	-1,	15,	34,	-1,	-1,	-1,	30,	13,	18,	-1,	-1,	-1,	21,	27,	11,	29,	33,	36|
-1,	16,	19,	27,	-1,	31,	29,	13,	-1,	-1,	28,	-1,	33,	6,	15,	-1,	22,	12,	-1,	-1,	32,	30,	-1,	3,	4,	-1,	-1,	9,	8,	21,	17,	-1,	18,	-1,	34,	23|
5,	6,	28,	-1,	-1,	36,	7,	-1,	-1,	-1,	17,	30,	19,	31,	21,	25,	27,	2,	18,	16,	13,	33,	-1,	29,	15,	-1,	23,	-1,	-1,	3,	4,	8,	-1,	24,	9,	32|
32,	-1,	36,	-1,	23,	17,	-1,	25,	18,	-1,	15,	-1,	27,	-1,	-1,	-1,	-1,	3,	-1,	31,	16,	19,	-1,	-1,	28,	-1,	26,	-1,	10,	-1,	-1,	2,	29,	14,	6,	-1|
-1,	24,	-1,	29,	15,	21,	-1,	14,	-1,	5,	-1,	-1,	11,	20,	-1,	-1,	34,	-1,	7,	-1,	2,	-1,	-1,	-1,	-1,	-1,	-1,	19,	1,	17,	-1,	-1,	4,	3,	31,	-1|
-1,	-1,	-1,	28,	30,	11,	2,	-1,	-1,	16,	22,	27,	17,	7,	-1,	23,	4,	15,	-1,	5,	-1,	3,	13,	-1,	-1,	-1,	34,	31,	-1,	20,	8,	10,	-1,	36,	32,	18|
-1,	25,	-1,	19,	1,	-1,	-1,	-1,	-1,	-1,	-1,	-1,	-1,	-1,	26,	-1,	-1,	31,	17,	21,	-1,	-1,	-1,	14,	-1,	4,	11,	36,	12,	30,	9,	22,	-1,	-1,	-1,	15|
31,	-1,	9,	-1,	22,	3,	10,	28,	-1,	32,	35,	-1,	36,	-1,	14,	12,	2,	-1,	29,	6,	8,	4,	30,	-1,	5,	-1,	16,	18,	-1,	23,	34,	-1,	-1,	-1,	-1,	21|
4,	10,	-1,	33,	-1,	13,	-1,	36,	-1,	-1,	31,	17,	-1,	-1,	35,	28,	5,	21,	-1,	26,	-1,	32,	18,	24,	6,	-1,	-1,	-1,	-1,	29,	11,	-1,	-1,	16,	1,	30|
10,	-1,	12,	36,	-1,	9,	-1,	-1,	19,	-1,	13,	-1,	6,	-1,	-1,	-1,	33,	-1,	-1,	2,	-1,	24,	16,	11,	3,	-1,	-1,	-1,	-1,	5,	-1,	-1,	1,	20,	-1,	-1|
1,	-1,	-1,	24,	3,	14,	-1,	-1,	28,	8,	12,	-1,	-1,	19,	-1,	30,	-1,	18,	10,	29,	-1,	-1,	33,	21,	25,	-1,	36,	4,	34,	-1,	-1,	-1,	9,	32,	17,	-1|
7,	-1,	-1,	-1,	31,	16,	-1,	9,	3,	25,	-1,	-1,	-1,	34,	10,	-1,	-1,	29,	28,	-1,	14,	-1,	5,	-1,	-1,	1,	-1,	11,	32,	22,	26,	21,	8,	-1,	15,	35|
-1,	-1,	29,	-1,	-1,	25,	-1,	-1,	-1,	-1,	26,	36,	-1,	-1,	1,	-1,	-1,	-1,	-1,	18,	6,	-1,	-1,	13,	8,	-1,	-1,	-1,	-1,	14,	30,	-1,	31,	2,	-1,	10|
33,	-1,	-1,	6,	13,	20,	14,	-1,	10,	-1,	-1,	-1,	4,	-1,	31,	-1,	35,	-1,	3,	-1,	-1,	15,	8,	1,	17,	-1,	24,	2,	-1,	-1,	12,	36,	34,	5,	-1,	-1|
-1,	8,	-1,	21,	-1,	32,	-1,	16,	-1,	-1,	-1,	-1,	-1,	-1,	5,	-1,	36,	-1,	31,	25,	30,	-1,	12,	-1,	23,	10,	20,	13,	29,	-1,	6,	24,	14,	-1,	-1,	-1|
-1,	-1,	27,	11,	-1,	-1,	12,	34,	17,	-1,	-1,	16,	-1,	-1,	6,	-1,	-1,	-1,	-1,	28,	-1,	35,	-1,	5,	9,	25,	31,	30,	20,	-1,	-1,	-1,	-1,	-1,	24,	-1|
19,	-1,	30,	9,	-1,	-1,	-1,	-1,	31,	-1,	-1,	-1,	-1,	27,	8,	-1,	-1,	28,	-1,	24,	15,	10,	1,	-1,	13,	-1,	-1,	23,	35,	-1,	33,	-1,	-1,	-1,	20,	-1|
-1,	3,	-1,	26,	21,	34,	-1,	-1,	9,	-1,	-1,	-1,	-1,	-1,	4,	10,	-1,	30,	16,	7,	-1,	-1,	23,	8,	1,	36,	28,	-1,	-1,	2,	-1,	13,	-1,	31,	35,	14|
-1,	-1,	-1,	-1,	7,	15,	-1,	19,	-1,	28,	25,	24,	-1,	-1,	36,	5,	14,	-1,	26,	-1,	-1,	-1,	9,	27,	-1,	29,	3,	-1,	-1,	-1,	32,	-1,	6,	-1,	-1,	-1|
28,	22,	-1,	-1,	24,	-1,	-1,	-1,	6,	21,	7,	-1,	-1,	-1,	20,	31,	18,	26,	36,	4,	29,	14,	3,	-1,	-1,	-1,	-1,	-1,	19,	34,	23,	11,	-1,	-1,	-1,	16|
-1,	-1,	20,	35,	29,	-1,	-1,	2,	4,	36,	10,	-1,	-1,	16,	-1,	-1,	7,	-1,	-1,	30,	31,	-1,	32,	-1,	-1,	-1,	-1,	-1,	26,	-1,	-1,	-1,	5,	-1,	27,	22|
9,	-1,	31,	32,	2,	-1,	22,	-1,	-1,	13,	14,	-1,	24,	-1,	3,	1,	20,	-1,	5,	33,	-1,	18,	-1,	-1,	19,	-1,	-1,	-1,	21,	-1,	-1,	-1,	27,	-1,	23,	11|
29,	-1,	22,	-1,	-1,	28,	-1,	3,	21,	-1,	30,	15,	31,	12,	7,	-1,	-1,	-1,	-1,	17,	10,	-1,	26,	16,	-1,	14,	-1,	-1,	-1,	25,	-1,	19,	24,	6,	-1,	-1|
-1,	-1,	13,	-1,	19,	-1,	5,	27,	-1,	9,	20,	23,	-1,	10,	-1,	4,	-1,	11,	-1,	34,	-1,	2,	-1,	25,	-1,	-1,	8,	26,	36,	1,	-1,	-1,	-1,	21,	12,	-1|
21,	-1,	-1,	-1,	33,	-1,	-1,	35,	36,	29,	1,	-1,	22,	5,	2,	-1,	-1,	16,	-1,	3,	4,	28,	7,	23,	-1,	34,	9,	20,	27,	-1,	14,	-1,	32,	8,	-1,	-1|
-1,	18,	-1,	-1,	12,	8,	24,	31,	-1,	-1,	6,	-1,	-1,	33,	-1,	35,	19,	-1,	-1,	13,	20,	11,	21,	32,	-1,	23,	2,	16,	17,	4,	36,	-1,	-1,	34,	-1,	-1|
-1,	36,	5,	25,	10,	-1,	28,	-1,	34,	18,	11,	12,	21,	26,	30,	29,	-1,	14,	15,	9,	22,	-1,	27,	19,	31,	3,	-1,	32,	6,	24,	-1,	17,	-1,	4,	-1,	1|];
